p cnf 30 30
13 -11 14 0
-27 -30 25 0
-2 -21 18 0
-26 30 5 0
-30 19 10 0
-29 22 11 0
-5 21 8 0
12 4 -29 0
4 1 22 0
27 1 -16 0
-27 10 -28 0
9 -19 -11 0
27 -25 26 0
8 13 27 0
-7 16 -30 0
-16 -19 23 0
21 30 15 0
-19 -17 -5 0
8 -27 -26 0
14 -29 9 0
22 -6 -9 0
25 20 27 0
17 -27 -30 0
20 -23 -30 0
27 -12 -13 0
-26 -24 7 0
-14 29 -8 0
-4 17 -14 0
26 28 8 0
30 18 28 0
